40	100	100	100
20	89	90
51	29	83
30	16	22
20	24	1
68	80	49
32	60	98
77	38	98
86	64	66
3	38	81
71	40	32
15	86	87
39	17	80
53	76	75
94	7	6
27	49	94
69	41	90
23	69	97
30	80	1
52	96	68
59	19	11
9	85	60
15	88	73
47	88	4
98	57	42
86	77	86
18	47	14
95	44	33
19	74	71
85	32	21
71	78	51
10	60	81
16	50	12
21	43	2
13	28	6
52	53	63
76	59	52
53	59	19
32	86	18
12	49	84
10	22	3
